
Gurobi 9.0.2 (linux64, gurobi_cl) logging started Fri Sep  4 09:06:02 2020

Using license file /home/latte/gurobi.lic
Set parameter LogFile to value gurobi.log

Gurobi 9.0.2 (linux64, gurobi_cl) logging started Fri Sep  4 09:11:28 2020

Using license file /home/latte/gurobi.lic
Set parameter LogFile to value gurobi.log

Gurobi 9.0.2 (linux64, gurobi_cl) logging started Fri Sep  4 09:14:11 2020

Using license file /home/latte/gurobi.lic
Set parameter LogFile to value gurobi.log
Academic license - for non-commercial use only

Gurobi 9.0.2 (linux64, Python) logging started Fri Sep  4 09:14:23 2020

Using license file /home/latte/gurobi.lic
Set parameter LogFile to value gurobi.log
Academic license - for non-commercial use only
